<?xml version = "1.0" encoding="UTF-8" standalone="yes"?>
<CPLEXSolution version="1.2">
 <header
   problemName="IloCplex"
   solutionName="incumbent"
   solutionIndex="-1"
   objectiveValue="18101.447482656251"
   solutionTypeValue="3"
   solutionTypeString="primal"
   solutionStatusValue="102"
   solutionStatusString="integer optimal, tolerance"
   solutionMethodString="mip"
   primalFeasible="1"
   dualFeasible="0"
   MIPNodes="0"
   MIPIterations="96"
   writeLevel="1"/>
 <quality
   epInt="1.0000000000000001e-05"
   epRHS="9.9999999999999995e-07"
   maxIntInfeas="0"
   maxPrimalInfeas="0"
   maxX="209"
   maxSlack="152"/>
 <linearConstraints>
  <constraint name="ProductionCapacity(1)" index="0" slack="95"/>
  <constraint name="ProductionCapacity(2)" index="1" slack="0"/>
  <constraint name="ProductionCapacity(3)" index="2" slack="0"/>
  <constraint name="PlantInventoryCapacity(1)" index="3" slack="132"/>
  <constraint name="PlantInventoryCapacity(2)" index="4" slack="152"/>
  <constraint name="PlantInventoryCapacity(3)" index="5" slack="152"/>
  <constraint name="PlantInventoryBalance(1)" index="6" slack="0"/>
  <constraint name="PlantInventoryBalance(2)" index="7" slack="0"/>
  <constraint name="PlantInventoryBalance(3)" index="8" slack="0"/>
  <constraint name="WarehouseInventoryCapacity(1,1,1)" index="9" slack="77.800000000000011"/>
  <constraint name="WarehouseInventoryCapacity(2,1,1)" index="10" slack="71.800000000000011"/>
  <constraint name="WarehouseInventoryCapacity(1,2,1)" index="11" slack="77.800000000000011"/>
  <constraint name="WarehouseInventoryCapacity(2,2,1)" index="12" slack="95.800000000000011"/>
  <constraint name="WarehouseInventoryCapacity(1,3,1)" index="13" slack="136.80000000000001"/>
  <constraint name="WarehouseInventoryCapacity(2,3,1)" index="14" slack="136.80000000000001"/>
  <constraint name="WarehouseInventoryBalance(1,1,1)" index="15" slack="0"/>
  <constraint name="WarehouseInventoryBalance(2,1,1)" index="16" slack="0"/>
  <constraint name="WarehouseInventoryBalance(1,2,1)" index="17" slack="0"/>
  <constraint name="WarehouseInventoryBalance(2,2,1)" index="18" slack="0"/>
  <constraint name="WarehouseInventoryBalance(1,3,1)" index="19" slack="0"/>
  <constraint name="WarehouseInventoryBalance(2,3,1)" index="20" slack="0"/>
  <constraint name="CustomerInventoryBalance(3,1,1)" index="21" slack="0"/>
  <constraint name="CustomerInventoryBalance(4,1,1)" index="22" slack="0"/>
  <constraint name="CustomerInventoryBalance(5,1,1)" index="23" slack="0"/>
  <constraint name="CustomerInventoryBalance(6,1,1)" index="24" slack="0"/>
  <constraint name="CustomerInventoryBalance(7,1,1)" index="25" slack="0"/>
  <constraint name="CustomerInventoryBalance(8,1,1)" index="26" slack="0"/>
  <constraint name="CustomerInventoryBalance(9,1,1)" index="27" slack="0"/>
  <constraint name="CustomerInventoryBalance(10,1,1)" index="28" slack="0"/>
  <constraint name="CustomerInventoryBalance(11,1,1)" index="29" slack="0"/>
  <constraint name="CustomerInventoryBalance(12,1,1)" index="30" slack="0"/>
  <constraint name="CustomerInventoryBalance(3,2,1)" index="31" slack="0"/>
  <constraint name="CustomerInventoryBalance(4,2,1)" index="32" slack="0"/>
  <constraint name="CustomerInventoryBalance(5,2,1)" index="33" slack="0"/>
  <constraint name="CustomerInventoryBalance(6,2,1)" index="34" slack="0"/>
  <constraint name="CustomerInventoryBalance(7,2,1)" index="35" slack="0"/>
  <constraint name="CustomerInventoryBalance(8,2,1)" index="36" slack="0"/>
  <constraint name="CustomerInventoryBalance(9,2,1)" index="37" slack="0"/>
  <constraint name="CustomerInventoryBalance(10,2,1)" index="38" slack="0"/>
  <constraint name="CustomerInventoryBalance(11,2,1)" index="39" slack="0"/>
  <constraint name="CustomerInventoryBalance(12,2,1)" index="40" slack="0"/>
  <constraint name="CustomerInventoryBalance(3,3,1)" index="41" slack="0"/>
  <constraint name="CustomerInventoryBalance(4,3,1)" index="42" slack="0"/>
  <constraint name="CustomerInventoryBalance(5,3,1)" index="43" slack="0"/>
  <constraint name="CustomerInventoryBalance(6,3,1)" index="44" slack="0"/>
  <constraint name="CustomerInventoryBalance(7,3,1)" index="45" slack="0"/>
  <constraint name="CustomerInventoryBalance(8,3,1)" index="46" slack="0"/>
  <constraint name="CustomerInventoryBalance(9,3,1)" index="47" slack="0"/>
  <constraint name="CustomerInventoryBalance(10,3,1)" index="48" slack="0"/>
  <constraint name="CustomerInventoryBalance(11,3,1)" index="49" slack="0"/>
  <constraint name="CustomerInventoryBalance(12,3,1)" index="50" slack="0"/>
  <constraint name="CustomerInventoryCapacity(3,1,1)" index="51" slack="10"/>
  <constraint name="CustomerInventoryCapacity(4,1,1)" index="52" slack="15"/>
  <constraint name="CustomerInventoryCapacity(5,1,1)" index="53" slack="17"/>
  <constraint name="CustomerInventoryCapacity(6,1,1)" index="54" slack="8"/>
  <constraint name="CustomerInventoryCapacity(7,1,1)" index="55" slack="18"/>
  <constraint name="CustomerInventoryCapacity(8,1,1)" index="56" slack="56"/>
  <constraint name="CustomerInventoryCapacity(9,1,1)" index="57" slack="62"/>
  <constraint name="CustomerInventoryCapacity(10,1,1)" index="58" slack="14"/>
  <constraint name="CustomerInventoryCapacity(11,1,1)" index="59" slack="67"/>
  <constraint name="CustomerInventoryCapacity(12,1,1)" index="60" slack="66"/>
  <constraint name="CustomerInventoryCapacity(3,2,1)" index="61" slack="11"/>
  <constraint name="CustomerInventoryCapacity(4,2,1)" index="62" slack="33"/>
  <constraint name="CustomerInventoryCapacity(5,2,1)" index="63" slack="30"/>
  <constraint name="CustomerInventoryCapacity(6,2,1)" index="64" slack="7"/>
  <constraint name="CustomerInventoryCapacity(7,2,1)" index="65" slack="24"/>
  <constraint name="CustomerInventoryCapacity(8,2,1)" index="66" slack="61"/>
  <constraint name="CustomerInventoryCapacity(9,2,1)" index="67" slack="88"/>
  <constraint name="CustomerInventoryCapacity(10,2,1)" index="68" slack="15"/>
  <constraint name="CustomerInventoryCapacity(11,2,1)" index="69" slack="82"/>
  <constraint name="CustomerInventoryCapacity(12,2,1)" index="70" slack="87"/>
  <constraint name="CustomerInventoryCapacity(3,3,1)" index="71" slack="8"/>
  <constraint name="CustomerInventoryCapacity(4,3,1)" index="72" slack="28"/>
  <constraint name="CustomerInventoryCapacity(5,3,1)" index="73" slack="29"/>
  <constraint name="CustomerInventoryCapacity(6,3,1)" index="74" slack="7"/>
  <constraint name="CustomerInventoryCapacity(7,3,1)" index="75" slack="27"/>
  <constraint name="CustomerInventoryCapacity(8,3,1)" index="76" slack="79"/>
  <constraint name="CustomerInventoryCapacity(9,3,1)" index="77" slack="108"/>
  <constraint name="CustomerInventoryCapacity(10,3,1)" index="78" slack="13"/>
  <constraint name="CustomerInventoryCapacity(11,3,1)" index="79" slack="98"/>
  <constraint name="CustomerInventoryCapacity(12,3,1)" index="80" slack="85"/>
  <constraint name="WarehouseCoverage(1,1)" index="81" slack="0"/>
  <constraint name="WarehouseCoverage(2,1)" index="82" slack="0"/>
  <constraint name="WarehouseCoverage(1,2)" index="83" slack="1"/>
  <constraint name="WarehouseCoverage(2,2)" index="84" slack="0"/>
  <constraint name="WarehouseCoverage(1,3)" index="85" slack="1"/>
  <constraint name="WarehouseCoverage(2,3)" index="86" slack="1"/>
  <constraint name="VehicleCapacityPlant(1,1)" index="87" slack="15"/>
  <constraint name="VehicleCapacityPlant(2,1)" index="88" slack="0"/>
  <constraint name="VehicleCapacityPlant(3,1)" index="89" slack="0"/>
  <constraint name="VehicleCapacityPlant(1,2)" index="90" slack="0"/>
  <constraint name="VehicleCapacityPlant(2,2)" index="91" slack="82"/>
  <constraint name="VehicleCapacityPlant(3,2)" index="92" slack="0"/>
  <constraint name="VehicleCapacityPlant(1,3)" index="93" slack="0"/>
  <constraint name="VehicleCapacityPlant(2,3)" index="94" slack="0"/>
  <constraint name="VehicleCapacityPlant(3,3)" index="95" slack="0"/>
  <constraint name="FleetSize(1)" index="96" slack="0"/>
  <constraint name="FleetSize(2)" index="97" slack="1"/>
  <constraint name="FleetSize(3)" index="98" slack="2"/>
  <constraint name="CustomerVisit(3,1,1,1)" index="99" slack="0"/>
  <constraint name="CustomerVisit(4,1,1,1)" index="100" slack="0"/>
  <constraint name="CustomerVisit(5,1,1,1)" index="101" slack="31"/>
  <constraint name="CustomerVisit(6,1,1,1)" index="102" slack="0"/>
  <constraint name="CustomerVisit(7,1,1,1)" index="103" slack="0"/>
  <constraint name="CustomerVisit(8,1,1,1)" index="104" slack="0"/>
  <constraint name="CustomerVisit(9,1,1,1)" index="105" slack="29"/>
  <constraint name="CustomerVisit(10,1,1,1)" index="106" slack="0"/>
  <constraint name="CustomerVisit(11,1,1,1)" index="107" slack="44"/>
  <constraint name="CustomerVisit(12,1,1,1)" index="108" slack="0"/>
  <constraint name="CustomerVisit(3,2,1,1)" index="109" slack="0"/>
  <constraint name="CustomerVisit(4,2,1,1)" index="110" slack="0"/>
  <constraint name="CustomerVisit(5,2,1,1)" index="111" slack="0"/>
  <constraint name="CustomerVisit(6,2,1,1)" index="112" slack="0"/>
  <constraint name="CustomerVisit(7,2,1,1)" index="113" slack="0"/>
  <constraint name="CustomerVisit(8,2,1,1)" index="114" slack="0"/>
  <constraint name="CustomerVisit(9,2,1,1)" index="115" slack="0"/>
  <constraint name="CustomerVisit(10,2,1,1)" index="116" slack="0"/>
  <constraint name="CustomerVisit(11,2,1,1)" index="117" slack="0"/>
  <constraint name="CustomerVisit(12,2,1,1)" index="118" slack="0"/>
  <constraint name="CustomerVisit(3,3,1,1)" index="119" slack="0"/>
  <constraint name="CustomerVisit(4,3,1,1)" index="120" slack="0"/>
  <constraint name="CustomerVisit(5,3,1,1)" index="121" slack="0"/>
  <constraint name="CustomerVisit(6,3,1,1)" index="122" slack="0"/>
  <constraint name="CustomerVisit(7,3,1,1)" index="123" slack="0"/>
  <constraint name="CustomerVisit(8,3,1,1)" index="124" slack="0"/>
  <constraint name="CustomerVisit(9,3,1,1)" index="125" slack="0"/>
  <constraint name="CustomerVisit(10,3,1,1)" index="126" slack="0"/>
  <constraint name="CustomerVisit(11,3,1,1)" index="127" slack="0"/>
  <constraint name="CustomerVisit(12,3,1,1)" index="128" slack="0"/>
  <constraint name="CustomerVisit(3,1,2,1)" index="129" slack="0"/>
  <constraint name="CustomerVisit(4,1,2,1)" index="130" slack="0"/>
  <constraint name="CustomerVisit(5,1,2,1)" index="131" slack="0"/>
  <constraint name="CustomerVisit(6,1,2,1)" index="132" slack="0"/>
  <constraint name="CustomerVisit(7,1,2,1)" index="133" slack="0"/>
  <constraint name="CustomerVisit(8,1,2,1)" index="134" slack="0"/>
  <constraint name="CustomerVisit(9,1,2,1)" index="135" slack="0"/>
  <constraint name="CustomerVisit(10,1,2,1)" index="136" slack="0"/>
  <constraint name="CustomerVisit(11,1,2,1)" index="137" slack="0"/>
  <constraint name="CustomerVisit(12,1,2,1)" index="138" slack="0"/>
  <constraint name="CustomerVisit(3,2,2,1)" index="139" slack="0"/>
  <constraint name="CustomerVisit(4,2,2,1)" index="140" slack="0"/>
  <constraint name="CustomerVisit(5,2,2,1)" index="141" slack="0"/>
  <constraint name="CustomerVisit(6,2,2,1)" index="142" slack="0"/>
  <constraint name="CustomerVisit(7,2,2,1)" index="143" slack="0"/>
  <constraint name="CustomerVisit(8,2,2,1)" index="144" slack="0"/>
  <constraint name="CustomerVisit(9,2,2,1)" index="145" slack="0"/>
  <constraint name="CustomerVisit(10,2,2,1)" index="146" slack="0"/>
  <constraint name="CustomerVisit(11,2,2,1)" index="147" slack="0"/>
  <constraint name="CustomerVisit(12,2,2,1)" index="148" slack="0"/>
  <constraint name="CustomerVisit(3,3,2,1)" index="149" slack="0"/>
  <constraint name="CustomerVisit(4,3,2,1)" index="150" slack="0"/>
  <constraint name="CustomerVisit(5,3,2,1)" index="151" slack="0"/>
  <constraint name="CustomerVisit(6,3,2,1)" index="152" slack="0"/>
  <constraint name="CustomerVisit(7,3,2,1)" index="153" slack="0"/>
  <constraint name="CustomerVisit(8,3,2,1)" index="154" slack="0"/>
  <constraint name="CustomerVisit(9,3,2,1)" index="155" slack="0"/>
  <constraint name="CustomerVisit(10,3,2,1)" index="156" slack="0"/>
  <constraint name="CustomerVisit(11,3,2,1)" index="157" slack="0"/>
  <constraint name="CustomerVisit(12,3,2,1)" index="158" slack="0"/>
  <constraint name="CustomerVisit(3,1,3,1)" index="159" slack="0"/>
  <constraint name="CustomerVisit(4,1,3,1)" index="160" slack="0"/>
  <constraint name="CustomerVisit(5,1,3,1)" index="161" slack="0"/>
  <constraint name="CustomerVisit(6,1,3,1)" index="162" slack="0"/>
  <constraint name="CustomerVisit(7,1,3,1)" index="163" slack="0"/>
  <constraint name="CustomerVisit(8,1,3,1)" index="164" slack="0"/>
  <constraint name="CustomerVisit(9,1,3,1)" index="165" slack="0"/>
  <constraint name="CustomerVisit(10,1,3,1)" index="166" slack="0"/>
  <constraint name="CustomerVisit(11,1,3,1)" index="167" slack="0"/>
  <constraint name="CustomerVisit(12,1,3,1)" index="168" slack="0"/>
  <constraint name="CustomerVisit(3,2,3,1)" index="169" slack="0"/>
  <constraint name="CustomerVisit(4,2,3,1)" index="170" slack="0"/>
  <constraint name="CustomerVisit(5,2,3,1)" index="171" slack="0"/>
  <constraint name="CustomerVisit(6,2,3,1)" index="172" slack="0"/>
  <constraint name="CustomerVisit(7,2,3,1)" index="173" slack="0"/>
  <constraint name="CustomerVisit(8,2,3,1)" index="174" slack="0"/>
  <constraint name="CustomerVisit(9,2,3,1)" index="175" slack="0"/>
  <constraint name="CustomerVisit(10,2,3,1)" index="176" slack="0"/>
  <constraint name="CustomerVisit(11,2,3,1)" index="177" slack="0"/>
  <constraint name="CustomerVisit(12,2,3,1)" index="178" slack="0"/>
  <constraint name="CustomerVisit(3,3,3,1)" index="179" slack="0"/>
  <constraint name="CustomerVisit(4,3,3,1)" index="180" slack="0"/>
  <constraint name="CustomerVisit(5,3,3,1)" index="181" slack="0"/>
  <constraint name="CustomerVisit(6,3,3,1)" index="182" slack="0"/>
  <constraint name="CustomerVisit(7,3,3,1)" index="183" slack="0"/>
  <constraint name="CustomerVisit(8,3,3,1)" index="184" slack="0"/>
  <constraint name="CustomerVisit(9,3,3,1)" index="185" slack="0"/>
  <constraint name="CustomerVisit(10,3,3,1)" index="186" slack="0"/>
  <constraint name="CustomerVisit(11,3,3,1)" index="187" slack="0"/>
  <constraint name="CustomerVisit(12,3,3,1)" index="188" slack="2"/>
  <constraint name="CustomerVisit(3,4,1,1)" index="189" slack="0"/>
  <constraint name="CustomerVisit(4,4,1,1)" index="190" slack="0"/>
  <constraint name="CustomerVisit(5,4,1,1)" index="191" slack="0"/>
  <constraint name="CustomerVisit(6,4,1,1)" index="192" slack="0"/>
  <constraint name="CustomerVisit(7,4,1,1)" index="193" slack="0"/>
  <constraint name="CustomerVisit(8,4,1,1)" index="194" slack="0"/>
  <constraint name="CustomerVisit(9,4,1,1)" index="195" slack="0"/>
  <constraint name="CustomerVisit(10,4,1,1)" index="196" slack="0"/>
  <constraint name="CustomerVisit(11,4,1,1)" index="197" slack="0"/>
  <constraint name="CustomerVisit(12,4,1,1)" index="198" slack="0"/>
  <constraint name="CustomerVisit(3,5,1,1)" index="199" slack="15"/>
  <constraint name="CustomerVisit(4,5,1,1)" index="200" slack="29"/>
  <constraint name="CustomerVisit(5,5,1,1)" index="201" slack="0"/>
  <constraint name="CustomerVisit(6,5,1,1)" index="202" slack="11"/>
  <constraint name="CustomerVisit(7,5,1,1)" index="203" slack="31"/>
  <constraint name="CustomerVisit(8,5,1,1)" index="204" slack="0"/>
  <constraint name="CustomerVisit(9,5,1,1)" index="205" slack="0"/>
  <constraint name="CustomerVisit(10,5,1,1)" index="206" slack="20"/>
  <constraint name="CustomerVisit(11,5,1,1)" index="207" slack="0"/>
  <constraint name="CustomerVisit(12,5,1,1)" index="208" slack="0"/>
  <constraint name="CustomerVisit(3,6,1,1)" index="209" slack="0"/>
  <constraint name="CustomerVisit(4,6,1,1)" index="210" slack="0"/>
  <constraint name="CustomerVisit(5,6,1,1)" index="211" slack="0"/>
  <constraint name="CustomerVisit(6,6,1,1)" index="212" slack="0"/>
  <constraint name="CustomerVisit(7,6,1,1)" index="213" slack="0"/>
  <constraint name="CustomerVisit(8,6,1,1)" index="214" slack="0"/>
  <constraint name="CustomerVisit(9,6,1,1)" index="215" slack="0"/>
  <constraint name="CustomerVisit(10,6,1,1)" index="216" slack="0"/>
  <constraint name="CustomerVisit(11,6,1,1)" index="217" slack="0"/>
  <constraint name="CustomerVisit(12,6,1,1)" index="218" slack="0"/>
  <constraint name="CustomerVisit(3,4,2,1)" index="219" slack="11"/>
  <constraint name="CustomerVisit(4,4,2,1)" index="220" slack="0"/>
  <constraint name="CustomerVisit(5,4,2,1)" index="221" slack="0"/>
  <constraint name="CustomerVisit(6,4,2,1)" index="222" slack="7"/>
  <constraint name="CustomerVisit(7,4,2,1)" index="223" slack="18"/>
  <constraint name="CustomerVisit(8,4,2,1)" index="224" slack="27"/>
  <constraint name="CustomerVisit(9,4,2,1)" index="225" slack="0"/>
  <constraint name="CustomerVisit(10,4,2,1)" index="226" slack="13"/>
  <constraint name="CustomerVisit(11,4,2,1)" index="227" slack="0"/>
  <constraint name="CustomerVisit(12,4,2,1)" index="228" slack="0"/>
  <constraint name="CustomerVisit(3,5,2,1)" index="229" slack="0"/>
  <constraint name="CustomerVisit(4,5,2,1)" index="230" slack="0"/>
  <constraint name="CustomerVisit(5,5,2,1)" index="231" slack="0"/>
  <constraint name="CustomerVisit(6,5,2,1)" index="232" slack="0"/>
  <constraint name="CustomerVisit(7,5,2,1)" index="233" slack="0"/>
  <constraint name="CustomerVisit(8,5,2,1)" index="234" slack="0"/>
  <constraint name="CustomerVisit(9,5,2,1)" index="235" slack="0"/>
  <constraint name="CustomerVisit(10,5,2,1)" index="236" slack="0"/>
  <constraint name="CustomerVisit(11,5,2,1)" index="237" slack="0"/>
  <constraint name="CustomerVisit(12,5,2,1)" index="238" slack="0"/>
  <constraint name="CustomerVisit(3,6,2,1)" index="239" slack="0"/>
  <constraint name="CustomerVisit(4,6,2,1)" index="240" slack="0"/>
  <constraint name="CustomerVisit(5,6,2,1)" index="241" slack="0"/>
  <constraint name="CustomerVisit(6,6,2,1)" index="242" slack="0"/>
  <constraint name="CustomerVisit(7,6,2,1)" index="243" slack="0"/>
  <constraint name="CustomerVisit(8,6,2,1)" index="244" slack="0"/>
  <constraint name="CustomerVisit(9,6,2,1)" index="245" slack="0"/>
  <constraint name="CustomerVisit(10,6,2,1)" index="246" slack="0"/>
  <constraint name="CustomerVisit(11,6,2,1)" index="247" slack="0"/>
  <constraint name="CustomerVisit(12,6,2,1)" index="248" slack="0"/>
  <constraint name="CustomerVisit(3,4,3,1)" index="249" slack="0"/>
  <constraint name="CustomerVisit(4,4,3,1)" index="250" slack="0"/>
  <constraint name="CustomerVisit(5,4,3,1)" index="251" slack="0"/>
  <constraint name="CustomerVisit(6,4,3,1)" index="252" slack="0"/>
  <constraint name="CustomerVisit(7,4,3,1)" index="253" slack="0"/>
  <constraint name="CustomerVisit(8,4,3,1)" index="254" slack="0"/>
  <constraint name="CustomerVisit(9,4,3,1)" index="255" slack="0"/>
  <constraint name="CustomerVisit(10,4,3,1)" index="256" slack="0"/>
  <constraint name="CustomerVisit(11,4,3,1)" index="257" slack="0"/>
  <constraint name="CustomerVisit(12,4,3,1)" index="258" slack="0"/>
  <constraint name="CustomerVisit(3,5,3,1)" index="259" slack="0"/>
  <constraint name="CustomerVisit(4,5,3,1)" index="260" slack="0"/>
  <constraint name="CustomerVisit(5,5,3,1)" index="261" slack="0"/>
  <constraint name="CustomerVisit(6,5,3,1)" index="262" slack="0"/>
  <constraint name="CustomerVisit(7,5,3,1)" index="263" slack="0"/>
  <constraint name="CustomerVisit(8,5,3,1)" index="264" slack="0"/>
  <constraint name="CustomerVisit(9,5,3,1)" index="265" slack="0"/>
  <constraint name="CustomerVisit(10,5,3,1)" index="266" slack="0"/>
  <constraint name="CustomerVisit(11,5,3,1)" index="267" slack="0"/>
  <constraint name="CustomerVisit(12,5,3,1)" index="268" slack="0"/>
  <constraint name="CustomerVisit(3,6,3,1)" index="269" slack="0"/>
  <constraint name="CustomerVisit(4,6,3,1)" index="270" slack="0"/>
  <constraint name="CustomerVisit(5,6,3,1)" index="271" slack="0"/>
  <constraint name="CustomerVisit(6,6,3,1)" index="272" slack="0"/>
  <constraint name="CustomerVisit(7,6,3,1)" index="273" slack="0"/>
  <constraint name="CustomerVisit(8,6,3,1)" index="274" slack="0"/>
  <constraint name="CustomerVisit(9,6,3,1)" index="275" slack="0"/>
  <constraint name="CustomerVisit(10,6,3,1)" index="276" slack="0"/>
  <constraint name="CustomerVisit(11,6,3,1)" index="277" slack="0"/>
  <constraint name="CustomerVisit(12,6,3,1)" index="278" slack="0"/>
  <constraint name="VehicleCapacityWarehouse(1,1,1,1)" index="279" slack="16"/>
  <constraint name="VehicleCapacityWarehouse(1,2,1,1)" index="280" slack="44"/>
  <constraint name="VehicleCapacityWarehouse(1,3,1,1)" index="281" slack="44"/>
  <constraint name="VehicleCapacityWarehouse(2,4,1,1)" index="282" slack="44"/>
  <constraint name="VehicleCapacityWarehouse(2,5,1,1)" index="283" slack="7"/>
  <constraint name="VehicleCapacityWarehouse(2,6,1,1)" index="284" slack="44"/>
  <constraint name="VehicleCapacityWarehouse(1,1,2,1)" index="285" slack="44"/>
  <constraint name="VehicleCapacityWarehouse(1,2,2,1)" index="286" slack="44"/>
  <constraint name="VehicleCapacityWarehouse(1,3,2,1)" index="287" slack="44"/>
  <constraint name="VehicleCapacityWarehouse(2,4,2,1)" index="288" slack="0"/>
  <constraint name="VehicleCapacityWarehouse(2,5,2,1)" index="289" slack="44"/>
  <constraint name="VehicleCapacityWarehouse(2,6,2,1)" index="290" slack="44"/>
  <constraint name="VehicleCapacityWarehouse(1,1,3,1)" index="291" slack="44"/>
  <constraint name="VehicleCapacityWarehouse(1,2,3,1)" index="292" slack="28"/>
  <constraint name="VehicleCapacityWarehouse(1,3,3,1)" index="293" slack="1"/>
  <constraint name="VehicleCapacityWarehouse(2,4,3,1)" index="294" slack="3"/>
  <constraint name="VehicleCapacityWarehouse(2,5,3,1)" index="295" slack="44"/>
  <constraint name="VehicleCapacityWarehouse(2,6,3,1)" index="296" slack="44"/>
 </linearConstraints>
 <variables>
  <variable name="y[1]" index="0" value="1"/>
  <variable name="y[2]" index="1" value="0"/>
  <variable name="y[3]" index="2" value="0"/>
  <variable name="p[1]" index="3" value="209"/>
  <variable name="p[2]" index="4" value="0"/>
  <variable name="p[3]" index="5" value="0"/>
  <variable name="I_plant[1]" index="6" value="20"/>
  <variable name="I_plant[2]" index="7" value="0"/>
  <variable name="I_plant[3]" index="8" value="0"/>
  <variable name="I_warehouse[1][1][1]" index="9" value="59"/>
  <variable name="I_warehouse[1][2][1]" index="10" value="59"/>
  <variable name="I_warehouse[1][3][1]" index="11" value="0"/>
  <variable name="I_warehouse[2][1][1]" index="12" value="65"/>
  <variable name="I_warehouse[2][2][1]" index="13" value="41"/>
  <variable name="I_warehouse[2][3][1]" index="14" value="0"/>
  <variable name="I_customer[3][1][1]" index="15" value="0"/>
  <variable name="I_customer[3][2][1]" index="16" value="0"/>
  <variable name="I_customer[3][3][1]" index="17" value="0"/>
  <variable name="I_customer[4][1][1]" index="18" value="12"/>
  <variable name="I_customer[4][2][1]" index="19" value="0"/>
  <variable name="I_customer[4][3][1]" index="20" value="0"/>
  <variable name="I_customer[5][1][1]" index="21" value="15"/>
  <variable name="I_customer[5][2][1]" index="22" value="0"/>
  <variable name="I_customer[5][3][1]" index="23" value="0"/>
  <variable name="I_customer[6][1][1]" index="24" value="0"/>
  <variable name="I_customer[6][2][1]" index="25" value="0"/>
  <variable name="I_customer[6][3][1]" index="26" value="0"/>
  <variable name="I_customer[7][1][1]" index="27" value="6"/>
  <variable name="I_customer[7][2][1]" index="28" value="0"/>
  <variable name="I_customer[7][3][1]" index="29" value="0"/>
  <variable name="I_customer[8][1][1]" index="30" value="27"/>
  <variable name="I_customer[8][2][1]" index="31" value="17"/>
  <variable name="I_customer[8][3][1]" index="32" value="0"/>
  <variable name="I_customer[9][1][1]" index="33" value="44"/>
  <variable name="I_customer[9][2][1]" index="34" value="24"/>
  <variable name="I_customer[9][3][1]" index="35" value="0"/>
  <variable name="I_customer[10][1][1]" index="36" value="0"/>
  <variable name="I_customer[10][2][1]" index="37" value="0"/>
  <variable name="I_customer[10][3][1]" index="38" value="0"/>
  <variable name="I_customer[11][1][1]" index="39" value="32"/>
  <variable name="I_customer[11][2][1]" index="40" value="16"/>
  <variable name="I_customer[11][3][1]" index="41" value="0"/>
  <variable name="I_customer[12][1][1]" index="42" value="23"/>
  <variable name="I_customer[12][2][1]" index="43" value="2"/>
  <variable name="I_customer[12][3][1]" index="44" value="0"/>
  <variable name="b_customer[3][1][1]" index="45" value="0"/>
  <variable name="b_customer[3][2][1]" index="46" value="0"/>
  <variable name="b_customer[3][3][1]" index="47" value="0"/>
  <variable name="b_customer[4][1][1]" index="48" value="0"/>
  <variable name="b_customer[4][2][1]" index="49" value="0"/>
  <variable name="b_customer[4][3][1]" index="50" value="0"/>
  <variable name="b_customer[5][1][1]" index="51" value="0"/>
  <variable name="b_customer[5][2][1]" index="52" value="0"/>
  <variable name="b_customer[5][3][1]" index="53" value="0"/>
  <variable name="b_customer[6][1][1]" index="54" value="0"/>
  <variable name="b_customer[6][2][1]" index="55" value="0"/>
  <variable name="b_customer[6][3][1]" index="56" value="0"/>
  <variable name="b_customer[7][1][1]" index="57" value="0"/>
  <variable name="b_customer[7][2][1]" index="58" value="0"/>
  <variable name="b_customer[7][3][1]" index="59" value="0"/>
  <variable name="b_customer[8][1][1]" index="60" value="0"/>
  <variable name="b_customer[8][2][1]" index="61" value="0"/>
  <variable name="b_customer[8][3][1]" index="62" value="0"/>
  <variable name="b_customer[9][1][1]" index="63" value="0"/>
  <variable name="b_customer[9][2][1]" index="64" value="0"/>
  <variable name="b_customer[9][3][1]" index="65" value="0"/>
  <variable name="b_customer[10][1][1]" index="66" value="0"/>
  <variable name="b_customer[10][2][1]" index="67" value="0"/>
  <variable name="b_customer[10][3][1]" index="68" value="0"/>
  <variable name="b_customer[11][1][1]" index="69" value="0"/>
  <variable name="b_customer[11][2][1]" index="70" value="0"/>
  <variable name="b_customer[11][3][1]" index="71" value="0"/>
  <variable name="b_customer[12][1][1]" index="72" value="0"/>
  <variable name="b_customer[12][2][1]" index="73" value="0"/>
  <variable name="b_customer[12][3][1]" index="74" value="0"/>
  <variable name="q[1][1][1]" index="75" value="87"/>
  <variable name="q[1][1][2]" index="76" value="0"/>
  <variable name="q[1][1][3]" index="77" value="0"/>
  <variable name="q[1][2][1]" index="78" value="0"/>
  <variable name="q[1][2][2]" index="79" value="0"/>
  <variable name="q[1][2][3]" index="80" value="0"/>
  <variable name="q[2][1][1]" index="81" value="0"/>
  <variable name="q[2][1][2]" index="82" value="0"/>
  <variable name="q[2][1][3]" index="83" value="0"/>
  <variable name="q[2][2][1]" index="84" value="102"/>
  <variable name="q[2][2][2]" index="85" value="20"/>
  <variable name="q[2][2][3]" index="86" value="0"/>
  <variable name="q[3][1][1]" index="87" value="0"/>
  <variable name="q[3][1][2]" index="88" value="0"/>
  <variable name="q[3][1][3]" index="89" value="0"/>
  <variable name="q[3][2][1]" index="90" value="0"/>
  <variable name="q[3][2][2]" index="91" value="0"/>
  <variable name="q[3][2][3]" index="92" value="0"/>
  <variable name="o[1][1]" index="93" value="1"/>
  <variable name="o[1][2]" index="94" value="0"/>
  <variable name="o[1][3]" index="95" value="0"/>
  <variable name="o[2][1]" index="96" value="1"/>
  <variable name="o[2][2]" index="97" value="1"/>
  <variable name="o[2][3]" index="98" value="0"/>
  <variable name="o[3][1]" index="99" value="0"/>
  <variable name="o[3][2]" index="100" value="0"/>
  <variable name="o[3][3]" index="101" value="0"/>
  <variable name="w[3][1][1][1]" index="102" value="0"/>
  <variable name="w[3][1][2][1]" index="103" value="0"/>
  <variable name="w[3][1][3][1]" index="104" value="0"/>
  <variable name="w[3][2][1][1]" index="105" value="0"/>
  <variable name="w[3][2][2][1]" index="106" value="0"/>
  <variable name="w[3][2][3][1]" index="107" value="0"/>
  <variable name="w[3][3][1][1]" index="108" value="0"/>
  <variable name="w[3][3][2][1]" index="109" value="0"/>
  <variable name="w[3][3][3][1]" index="110" value="0"/>
  <variable name="w[3][4][1][1]" index="111" value="0"/>
  <variable name="w[3][4][2][1]" index="112" value="9"/>
  <variable name="w[3][4][3][1]" index="113" value="12"/>
  <variable name="w[3][5][1][1]" index="114" value="5"/>
  <variable name="w[3][5][2][1]" index="115" value="0"/>
  <variable name="w[3][5][3][1]" index="116" value="0"/>
  <variable name="w[3][6][1][1]" index="117" value="0"/>
  <variable name="w[3][6][2][1]" index="118" value="0"/>
  <variable name="w[3][6][3][1]" index="119" value="0"/>
  <variable name="w[4][1][1][1]" index="120" value="0"/>
  <variable name="w[4][1][2][1]" index="121" value="0"/>
  <variable name="w[4][1][3][1]" index="122" value="0"/>
  <variable name="w[4][2][1][1]" index="123" value="0"/>
  <variable name="w[4][2][2][1]" index="124" value="0"/>
  <variable name="w[4][2][3][1]" index="125" value="0"/>
  <variable name="w[4][3][1][1]" index="126" value="0"/>
  <variable name="w[4][3][2][1]" index="127" value="0"/>
  <variable name="w[4][3][3][1]" index="128" value="0"/>
  <variable name="w[4][4][1][1]" index="129" value="0"/>
  <variable name="w[4][4][2][1]" index="130" value="0"/>
  <variable name="w[4][4][3][1]" index="131" value="17"/>
  <variable name="w[4][5][1][1]" index="132" value="15"/>
  <variable name="w[4][5][2][1]" index="133" value="0"/>
  <variable name="w[4][5][3][1]" index="134" value="0"/>
  <variable name="w[4][6][1][1]" index="135" value="0"/>
  <variable name="w[4][6][2][1]" index="136" value="0"/>
  <variable name="w[4][6][3][1]" index="137" value="0"/>
  <variable name="w[5][1][1][1]" index="138" value="13"/>
  <variable name="w[5][1][2][1]" index="139" value="0"/>
  <variable name="w[5][1][3][1]" index="140" value="0"/>
  <variable name="w[5][2][1][1]" index="141" value="0"/>
  <variable name="w[5][2][2][1]" index="142" value="0"/>
  <variable name="w[5][2][3][1]" index="143" value="16"/>
  <variable name="w[5][3][1][1]" index="144" value="0"/>
  <variable name="w[5][3][2][1]" index="145" value="0"/>
  <variable name="w[5][3][3][1]" index="146" value="0"/>
  <variable name="w[5][4][1][1]" index="147" value="0"/>
  <variable name="w[5][4][2][1]" index="148" value="0"/>
  <variable name="w[5][4][3][1]" index="149" value="0"/>
  <variable name="w[5][5][1][1]" index="150" value="0"/>
  <variable name="w[5][5][2][1]" index="151" value="0"/>
  <variable name="w[5][5][3][1]" index="152" value="0"/>
  <variable name="w[5][6][1][1]" index="153" value="0"/>
  <variable name="w[5][6][2][1]" index="154" value="0"/>
  <variable name="w[5][6][3][1]" index="155" value="0"/>
  <variable name="w[6][1][1][1]" index="156" value="0"/>
  <variable name="w[6][1][2][1]" index="157" value="0"/>
  <variable name="w[6][1][3][1]" index="158" value="0"/>
  <variable name="w[6][2][1][1]" index="159" value="0"/>
  <variable name="w[6][2][2][1]" index="160" value="0"/>
  <variable name="w[6][2][3][1]" index="161" value="0"/>
  <variable name="w[6][3][1][1]" index="162" value="0"/>
  <variable name="w[6][3][2][1]" index="163" value="0"/>
  <variable name="w[6][3][3][1]" index="164" value="7"/>
  <variable name="w[6][4][1][1]" index="165" value="0"/>
  <variable name="w[6][4][2][1]" index="166" value="7"/>
  <variable name="w[6][4][3][1]" index="167" value="0"/>
  <variable name="w[6][5][1][1]" index="168" value="3"/>
  <variable name="w[6][5][2][1]" index="169" value="0"/>
  <variable name="w[6][5][3][1]" index="170" value="0"/>
  <variable name="w[6][6][1][1]" index="171" value="0"/>
  <variable name="w[6][6][2][1]" index="172" value="0"/>
  <variable name="w[6][6][3][1]" index="173" value="0"/>
  <variable name="w[7][1][1][1]" index="174" value="0"/>
  <variable name="w[7][1][2][1]" index="175" value="0"/>
  <variable name="w[7][1][3][1]" index="176" value="0"/>
  <variable name="w[7][2][1][1]" index="177" value="0"/>
  <variable name="w[7][2][2][1]" index="178" value="0"/>
  <variable name="w[7][2][3][1]" index="179" value="0"/>
  <variable name="w[7][3][1][1]" index="180" value="0"/>
  <variable name="w[7][3][2][1]" index="181" value="0"/>
  <variable name="w[7][3][3][1]" index="182" value="0"/>
  <variable name="w[7][4][1][1]" index="183" value="0"/>
  <variable name="w[7][4][2][1]" index="184" value="9"/>
  <variable name="w[7][4][3][1]" index="185" value="12"/>
  <variable name="w[7][5][1][1]" index="186" value="8"/>
  <variable name="w[7][5][2][1]" index="187" value="0"/>
  <variable name="w[7][5][3][1]" index="188" value="0"/>
  <variable name="w[7][6][1][1]" index="189" value="0"/>
  <variable name="w[7][6][2][1]" index="190" value="0"/>
  <variable name="w[7][6][3][1]" index="191" value="0"/>
  <variable name="w[8][1][1][1]" index="192" value="0"/>
  <variable name="w[8][1][2][1]" index="193" value="0"/>
  <variable name="w[8][1][3][1]" index="194" value="0"/>
  <variable name="w[8][2][1][1]" index="195" value="0"/>
  <variable name="w[8][2][2][1]" index="196" value="0"/>
  <variable name="w[8][2][3][1]" index="197" value="0"/>
  <variable name="w[8][3][1][1]" index="198" value="0"/>
  <variable name="w[8][3][2][1]" index="199" value="0"/>
  <variable name="w[8][3][3][1]" index="200" value="0"/>
  <variable name="w[8][4][1][1]" index="201" value="0"/>
  <variable name="w[8][4][2][1]" index="202" value="8"/>
  <variable name="w[8][4][3][1]" index="203" value="0"/>
  <variable name="w[8][5][1][1]" index="204" value="0"/>
  <variable name="w[8][5][2][1]" index="205" value="0"/>
  <variable name="w[8][5][3][1]" index="206" value="0"/>
  <variable name="w[8][6][1][1]" index="207" value="0"/>
  <variable name="w[8][6][2][1]" index="208" value="0"/>
  <variable name="w[8][6][3][1]" index="209" value="0"/>
  <variable name="w[9][1][1][1]" index="210" value="15"/>
  <variable name="w[9][1][2][1]" index="211" value="0"/>
  <variable name="w[9][1][3][1]" index="212" value="0"/>
  <variable name="w[9][2][1][1]" index="213" value="0"/>
  <variable name="w[9][2][2][1]" index="214" value="0"/>
  <variable name="w[9][2][3][1]" index="215" value="0"/>
  <variable name="w[9][3][1][1]" index="216" value="0"/>
  <variable name="w[9][3][2][1]" index="217" value="0"/>
  <variable name="w[9][3][3][1]" index="218" value="0"/>
  <variable name="w[9][4][1][1]" index="219" value="0"/>
  <variable name="w[9][4][2][1]" index="220" value="0"/>
  <variable name="w[9][4][3][1]" index="221" value="0"/>
  <variable name="w[9][5][1][1]" index="222" value="0"/>
  <variable name="w[9][5][2][1]" index="223" value="0"/>
  <variable name="w[9][5][3][1]" index="224" value="0"/>
  <variable name="w[9][6][1][1]" index="225" value="0"/>
  <variable name="w[9][6][2][1]" index="226" value="0"/>
  <variable name="w[9][6][3][1]" index="227" value="0"/>
  <variable name="w[10][1][1][1]" index="228" value="0"/>
  <variable name="w[10][1][2][1]" index="229" value="0"/>
  <variable name="w[10][1][3][1]" index="230" value="0"/>
  <variable name="w[10][2][1][1]" index="231" value="0"/>
  <variable name="w[10][2][2][1]" index="232" value="0"/>
  <variable name="w[10][2][3][1]" index="233" value="0"/>
  <variable name="w[10][3][1][1]" index="234" value="0"/>
  <variable name="w[10][3][2][1]" index="235" value="0"/>
  <variable name="w[10][3][3][1]" index="236" value="13"/>
  <variable name="w[10][4][1][1]" index="237" value="0"/>
  <variable name="w[10][4][2][1]" index="238" value="11"/>
  <variable name="w[10][4][3][1]" index="239" value="0"/>
  <variable name="w[10][5][1][1]" index="240" value="6"/>
  <variable name="w[10][5][2][1]" index="241" value="0"/>
  <variable name="w[10][5][3][1]" index="242" value="0"/>
  <variable name="w[10][6][1][1]" index="243" value="0"/>
  <variable name="w[10][6][2][1]" index="244" value="0"/>
  <variable name="w[10][6][3][1]" index="245" value="0"/>
  <variable name="w[11][1][1][1]" index="246" value="0"/>
  <variable name="w[11][1][2][1]" index="247" value="0"/>
  <variable name="w[11][1][3][1]" index="248" value="0"/>
  <variable name="w[11][2][1][1]" index="249" value="0"/>
  <variable name="w[11][2][2][1]" index="250" value="0"/>
  <variable name="w[11][2][3][1]" index="251" value="0"/>
  <variable name="w[11][3][1][1]" index="252" value="0"/>
  <variable name="w[11][3][2][1]" index="253" value="0"/>
  <variable name="w[11][3][3][1]" index="254" value="0"/>
  <variable name="w[11][4][1][1]" index="255" value="0"/>
  <variable name="w[11][4][2][1]" index="256" value="0"/>
  <variable name="w[11][4][3][1]" index="257" value="0"/>
  <variable name="w[11][5][1][1]" index="258" value="0"/>
  <variable name="w[11][5][2][1]" index="259" value="0"/>
  <variable name="w[11][5][3][1]" index="260" value="0"/>
  <variable name="w[11][6][1][1]" index="261" value="0"/>
  <variable name="w[11][6][2][1]" index="262" value="0"/>
  <variable name="w[11][6][3][1]" index="263" value="0"/>
  <variable name="w[12][1][1][1]" index="264" value="0"/>
  <variable name="w[12][1][2][1]" index="265" value="0"/>
  <variable name="w[12][1][3][1]" index="266" value="0"/>
  <variable name="w[12][2][1][1]" index="267" value="0"/>
  <variable name="w[12][2][2][1]" index="268" value="0"/>
  <variable name="w[12][2][3][1]" index="269" value="0"/>
  <variable name="w[12][3][1][1]" index="270" value="0"/>
  <variable name="w[12][3][2][1]" index="271" value="0"/>
  <variable name="w[12][3][3][1]" index="272" value="23"/>
  <variable name="w[12][4][1][1]" index="273" value="0"/>
  <variable name="w[12][4][2][1]" index="274" value="0"/>
  <variable name="w[12][4][3][1]" index="275" value="0"/>
  <variable name="w[12][5][1][1]" index="276" value="0"/>
  <variable name="w[12][5][2][1]" index="277" value="0"/>
  <variable name="w[12][5][3][1]" index="278" value="0"/>
  <variable name="w[12][6][1][1]" index="279" value="0"/>
  <variable name="w[12][6][2][1]" index="280" value="0"/>
  <variable name="w[12][6][3][1]" index="281" value="0"/>
 </variables>
 <objectiveValues>
  <objective index="0" name="obj1" value="18101.447482656255"/>
 </objectiveValues>
</CPLEXSolution>
